102
0 25 11 2 93 13 15 5 27 89 
57 82 67 79 23 56 53 98 88 21 
55 68 50 70 46 54 40 78 6 64 
3 84 9 38 99 12 45 34 18 52 
49 101 37 10 62 59 73 65 26 87 
16 44 95 31 43 100 80 76 7 69 
41 32 47 28 33 92 96 30 83 8 
66 91 19 14 61 42 36 35 4 22 
94 1 24 29 77 81 17 86 51 71 
60 39 75 72 74 20 63 97 48 90 
58 85 
